p cnf 12 50 
-6 -5 -8 0
-6 2 7 0
-10 9 12 0
5 9 -6 0
-5 4 -3 0
3 -8 -7 0
12 -11 -9 0
-10 -1 -6 0
4 -7 6 0
11 9 6 0
-12 6 -7 0
-12 -1 3 0
-7 -12 -3 0
-9 -1 3 0
6 5 8 0
10 6 -7 0
-11 -3 -10 0
-12 8 -11 0
4 -2 -12 0
6 8 10 0
-2 9 5 0
9 -1 10 0
1 10 4 0
-10 3 -2 0
9 12 -7 0
9 1 -3 0
8 7 2 0
6 3 -8 0
9 -11 10 0
7 -8 1 0
-8 4 -10 0
2 -8 -4 0
-2 -10 -9 0
5 -7 1 0
-1 10 5 0
-12 -3 2 0
6 -8 10 0
1 7 -3 0
1 -9 5 0
11 2 3 0
11 -10 -1 0
-2 -10 -3 0
6 -4 -7 0
-6 1 4 0
12 -10 -5 0
7 -10 8 0
1 10 6 0
8 4 10 0
6 -4 -8 0
6 12 -2 0
